NAME : mtspf.pid4010.gtsp.241592387.tour
COMMENT : Length = 241592387
COMMENT : Found by LKH [Keld Helsgaun] Sun Feb 23 00:16:16 2025
TYPE : TOUR
DIMENSION : 135
TOUR_SECTION
1
4
24
25
26
27
2
131
128
129
130
28
29
30
31
135
132
133
134
116
117
118
119
13
17
18
19
16
46
47
44
45
12
51
48
49
50
21
22
23
20
97
98
99
96
120
121
122
123
8
35
32
33
34
65
66
67
64
36
37
38
39
10
91
88
89
90
105
106
107
104
70
71
68
69
9
5
60
61
62
63
82
83
80
81
6
102
103
100
101
72
73
74
75
40
41
42
43
7
14
111
108
109
110
3
11
114
115
112
113
57
58
59
56
126
127
124
125
92
93
94
95
85
86
87
84
78
79
76
77
15
54
55
52
53
-1
EOF
